c Random generated cnf formula, satisfiable: false
p cnf 10 50
8 4 -9 0
8 -9 -3 0
1 -6 -9 0
1 -10 -9 0
-4 -9 10 0
8 -10 4 0
8 1 -10 0
-1 -2 3 0
-7 1 8 0
-6 -4 8 0
7 -10 5 0
10 1 -3 0
-5 10 -9 0
6 2 4 0
8 -6 -1 0
-7 4 -1 0
8 3 4 0
-4 -1 -8 0
7 -10 -1 0
6 -5 9 0
-8 5 -7 0
-3 -6 9 0
-7 -4 10 0
4 -2 10 0
10 9 8 0
10 -9 -2 0
4 -10 -6 0
9 10 7 0
-6 -7 -2 0
-4 7 5 0
3 7 -8 0
3 -7 1 0
-5 7 -8 0
10 -1 8 0
-7 8 -1 0
-9 -7 -3 0
5 -6 -3 0
-5 -8 -4 0
-4 1 7 0
4 6 10 0
9 10 6 0
8 5 -1 0
-10 6 7 0
-9 2 -1 0
-3 8 -6 0
-1 -9 -4 0
-2 3 8 0
-4 8 10 0
-3 -2 -7 0
-8 6 10 0
